\ SCIP STATISTICS
\   Problem name     : sac-a-dos.lp
\   Variables        : 12 (12 binary, 0 integer, 0 implicit integer, 0 continuous)
\   Constraints      : 1
Maximize
 Obj: +20 x1 +10 x2 +25 x3 +11 x4 +5 x5 +50 x6 +15 x7 +12 x8 +6 x9 +5 x10 +4 x11 +30 x12
Subject to
 c: +11 x1 +7 x2 +5 x3 +5 x4 +4 x5 +3 x6 +3 x7 +2 x8 +2 x9 +2 x10 +2 x11 +1 x12 <= +20
Bounds
 0 <= x1 <= 1
 0 <= x2 <= 1
 0 <= x3 <= 1
 0 <= x4 <= 1
 0 <= x5 <= 1
 0 <= x6 <= 1
 0 <= x7 <= 1
 0 <= x8 <= 1
 0 <= x9 <= 1
 0 <= x10 <= 1
 0 <= x11 <= 1
 0 <= x12 <= 1
Binaries
 x1 x2 x3 x4 x5 x6 x7 x8 x9 x10 x11 x12
End
